************************************************************************
file with basedata            : md329_.bas
initial value random generator: 1575372265
************************************************************************
projects                      :  1
jobs (incl. supersource/sink ):  22
horizon                       :  146
RESOURCES
  - renewable                 :  2   R
  - nonrenewable              :  2   N
  - doubly constrained        :  0   D
************************************************************************
PROJECT INFORMATION:
pronr.  #jobs rel.date duedate tardcost  MPM-Time
    1     20      0       17       17       17
************************************************************************
PRECEDENCE RELATIONS:
jobnr.    #modes  #successors   successors
   1        1          3           2   3   4
   2        3          2           7  11
   3        3          2           5  14
   4        3          3           9  12  15
   5        3          3           6  11  19
   6        3          2           7  12
   7        3          3           8   9  16
   8        3          2          10  15
   9        3          2          10  17
  10        3          1          21
  11        3          3          12  13  15
  12        3          1          18
  13        3          1          21
  14        3          3          18  19  20
  15        3          2          17  20
  16        3          2          17  20
  17        3          1          18
  18        3          1          21
  19        3          1          22
  20        3          1          22
  21        3          1          22
  22        1          0        
************************************************************************
REQUESTS/DURATIONS:
jobnr. mode duration  R 1  R 2  N 1  N 2
------------------------------------------------------------------------
  1      1     0       0    0    0    0
  2      1     5       0    2    4    0
         2     6       4    0    0   10
         3     7       3    0    0    2
  3      1     1       6    0    0    6
         2     5       0    4    6    0
         3     6       0    2    6    0
  4      1     1       6    0    0    6
         2     4       0    9    0    6
         3     4       3    0    0    6
  5      1     2       6    0    4    0
         2     2       0    5    0    4
         3     5       0    4    0    2
  6      1     2       9    0    6    0
         2     9       5    0    4    0
         3     9       1    0    0    9
  7      1     1       0   10    0    6
         2     8       6    0    0    5
         3    10       5    0    7    0
  8      1     1       0    3    8    0
         2     2       6    0    8    0
         3     5       0    3    7    0
  9      1     3       6    0    6    0
         2     6       0    6    5    0
         3     7       6    0    0    8
 10      1     2       0    3    0    5
         2     8       4    0    0    3
         3     9       4    0    5    0
 11      1     1       2    0    0    5
         2     2       0    8    0    5
         3     8       1    0    3    0
 12      1     1       7    0    0    3
         2     1       0    3    0    5
         3     6       6    0    9    0
 13      1     2       9    0    0    9
         2     7       0    9    6    0
         3     7       8    0    5    0
 14      1     4       0    6    0    6
         2     5       6    0    0    6
         3     7       0    5    0    5
 15      1     2       4    0    0    5
         2     5       3    0    0    5
         3     9       2    0    0    5
 16      1     1       0    6    7    0
         2     2       0    6    6    0
         3     8       0    4    4    0
 17      1     2       3    0    0    5
         2     2       0    3    0    8
         3     7       5    0   10    0
 18      1     4      10    0    0    7
         2     4       8    0    5    0
         3     9       6    0    4    0
 19      1     2       0    3    0    8
         2     3      10    0    0    8
         3     9      10    0    6    0
 20      1     4       8    0    0    5
         2     4       5    0    0    6
         3     8       0   10    0    5
 21      1     2       7    0    0    3
         2     2       0    4    9    0
         3     6       7    0    8    0
 22      1     0       0    0    0    0
************************************************************************
RESOURCEAVAILABILITIES:
  R 1  R 2  N 1  N 2
   13   10   56   69
************************************************************************
MAXIMAL LAGS:
from  to  type  delay
    1   22   ES      0
    1    2   ES      0
    2   22   ES      0
    1    3   ES      0
    3   22   ES      0
    1    4   ES      0
    4   22   ES      0
    1    5   ES      0
    5   22   ES      0
    1    6   ES      0
    6   22   ES      0
    1    7   ES      0
    7   22   ES      0
    1    8   ES      0
    8   22   ES      0
    1    9   ES      0
    9   22   ES      0
    1   10   ES      0
   10   22   ES      0
    1   11   ES      0
   11   22   ES      0
    1   12   ES      0
   12   22   ES      0
    1   13   ES      0
   13   22   ES      0
    1   14   ES      0
   14   22   ES      0
    1   15   ES      0
   15   22   ES      0
    1   16   ES      0
   16   22   ES      0
    1   17   ES      0
   17   22   ES      0
    1   18   ES      0
   18   22   ES      0
    1   19   ES      0
   19   22   ES      0
    1   20   ES      0
   20   22   ES      0
    1   21   ES      0
   21   22   ES      0
    1   22   ES      0
    2    7   SS     -8
    2    7   SE      9
    2    7   ES      1
    2    7   EE      1
    2   11   SS     -7
    2   11   SE     -8
    2   11   ES      9
    2   11   EE     -4
    3    5   SS      3
    3    5   SE      2
    3    5   ES      1
    3    5   EE    -12
    3   14   SS     -6
    3   14   SE      5
    3   14   ES     -8
    3   14   EE      9
    4    9   SS      4
    4    9   SE    -11
    4    9   ES      3
    4    9   EE    -10
    4   12   SS    -11
    4   12   SE    -11
    4   12   ES     -8
    4   12   EE     -4
    4   15   SS     -2
    4   15   SE      4
    4   15   ES     12
    4   15   EE     10
    5    6   SS      4
    5    6   SE      9
    5    6   ES     12
    5    6   EE      1
    5   11   SS     -4
    5   11   SE     -9
    5   11   ES      8
    5   11   EE      2
    5   19   SS      8
    5   19   SE      6
    5   19   ES     -5
    5   19   EE      7
    6    7   SS      7
    6    7   SE      0
    6    7   ES      7
    6    7   EE      3
    6   12   SS      7
    6   12   SE     -5
    6   12   ES      9
    6   12   EE     12
    7    8   SS      8
    7    8   SE     -5
    7    8   ES     12
    7    8   EE      7
    7    9   SS     12
    7    9   SE     -6
    7    9   ES     -5
    7    9   EE      4
    7   16   SS     -6
    7   16   SE     11
    7   16   ES     -6
    7   16   EE      4
    8   10   SS      2
    8   10   SE      1
    8   10   ES      5
    8   10   EE      4
    8   15   SS     -6
    8   15   SE      5
    8   15   ES     11
    8   15   EE      0
    9   10   SS      4
    9   10   SE      6
    9   10   ES      4
    9   10   EE     -8
    9   17   SS     -1
    9   17   SE      4
    9   17   ES     -9
    9   17   EE      2
   10   21   SS     -6
   10   21   SE      5
   10   21   ES     11
   10   21   EE      1
   11   12   SS      5
   11   12   SE     -9
   12   11   SE      0
   11   12   ES      0
   11   12   EE     -1
   11   13   SS     -7
   11   13   SE     11
   11   13   ES     -8
   11   13   EE     -5
   11   15   SS     -2
   11   15   SE    -11
   11   15   ES      3
   11   15   EE      8
   12   18   SS      7
   12   18   SE     10
   12   18   ES      8
   12   18   EE      7
   13   21   SS     -5
   13   21   SE      3
   13   21   ES      5
   13   21   EE      3
   14   18   SS     -5
   14   18   SE     11
   14   18   ES      8
   14   18   EE     -1
   14   19   SS     -8
   14   19   SE     -9
   14   19   ES      6
   14   19   EE      7
   14   20   SS      4
   14   20   SE    -12
   14   20   ES      0
   14   20   EE      4
   15   17   SS     -4
   15   17   SE      7
   15   17   ES      0
   15   17   EE    -12
   15   20   SS      9
   15   20   SE     -6
   15   20   ES     -6
   15   20   EE     -3
   16   17   SS     -7
   16   17   SE      7
   16   17   ES     12
   16   17   EE      7
   16   20   SS     11
   16   20   SE     -1
   16   20   ES    -11
   16   20   EE      5
   17   18   SS      0
   17   18   SE      2
   17   18   ES     -8
   17   18   EE     11
   18   21   SS     -8
   18   21   SE      1
   18   21   ES      9
   18   21   EE      8
************************************************************************
